NAME        subset_select_in
ROWS
 N  COST    
 L  C00     
 L  C01     
 L  C02     
 L  C03     
 L  C04     
 E  C05     
 E  C06     
 E  C07     
 E  C08     
 E  C09     
 E  C10     
 E  C11     
 G  C12     
 G  C13     
COLUMNS
    MARK0000  'MARKER'                 'INTORG'
    V03       COST      2
    V03       C05       -1
    V04       C05       1
    V04       C12       5
    V05       C05       1
    V06       COST      1
    V06       C00       -1
    V06       C06       -1
    V07       C06       1
    V07       C12       3
    V08       C06       1
    V08       C13       1
    V09       COST      2
    V09       C00       1
    V09       C01       -1
    V09       C07       -1
    V10       C07       1
    V10       C12       5
    V11       C07       1
    V11       C13       1
    V12       COST      2
    V12       C01       1
    V12       C04       -1
    V12       C08       -1
    V13       C08       1
    V13       C12       8
    V14       C08       1
    V14       C13       2
    V15       COST      3
    V15       C02       1
    V15       C03       -1
    V15       C09       -1
    V16       C09       1
    V16       C12       12
    V17       C09       1
    V18       COST      4
    V18       C03       1
    V18       C10       -1
    V19       C10       1
    V19       C12       16
    V20       C10       1
    V21       COST      2
    V21       C02       -1
    V21       C04       1
    V21       C11       -1
    V22       C11       1
    V22       C12       8
    V23       C11       1
    V00       COST      0
    V01       COST      0
    V02       COST      0
    MARK0001  'MARKER'                 'INTEND'
RHS
    RHS_V     C12       9999
    RHS_V     C13       9999
BOUNDS
 BV BOUND     V03     
 BV BOUND     V04     
 BV BOUND     V05     
 BV BOUND     V06     
 BV BOUND     V07     
 BV BOUND     V08     
 BV BOUND     V09     
 BV BOUND     V10     
 BV BOUND     V11     
 BV BOUND     V12     
 BV BOUND     V13     
 BV BOUND     V14     
 BV BOUND     V15     
 BV BOUND     V16     
 BV BOUND     V17     
 BV BOUND     V18     
 BV BOUND     V19     
 BV BOUND     V20     
 BV BOUND     V21     
 BV BOUND     V22     
 BV BOUND     V23     
 BV BOUND     V00     
 BV BOUND     V01     
 BV BOUND     V02     
ENDATA
